Data path: /scratch/opt/lxu/CFLG/benchmarks/Kgroup_A
Instance: K100.1.red
Result path: /scratch/opt/lxu/CFLG/results/Kgroup_A
Solver: Gurobi
Time limit: 7200
Formulation: LEFPAD
Cover: Small
julia --project=. src/main.jl /scratch/opt/lxu/CFLG/benchmarks/Kgroup_A K100.1.red /scratch/opt/lxu/CFLG/results/Kgroup_A Gurobi 7200 LEFPAD Small
The latest version of Julia in the `release` channel is 1.11.5+0.x64.linux.gnu. You currently have `1.11.4+0.x64.linux.gnu` installed. Run:

  juliaup update

in your terminal shell to install Julia 1.11.5+0.x64.linux.gnu and update the `release` channel to that version.
/scratch/opt/lxu/CFLG/benchmarks/Kgroup_A Gurobi 7200.0 /scratch/opt/lxu/CFLG/results/Kgroup_A K100.1.red LEFPAD Small
/scratch/opt/lxu/CFLG/benchmarks/Kgroup_A/K100.1.red

 read graph
data loaded


after absorb:42 42

max_piece:20
problem_graph/original graph: node: 66/42 edge: 209/185 dlt: 0.05086356964332492 break_avg_len: 0.18009110782804053 break_max_len: 1.0Vbar/V, Ebar/E(66, 66, 209, 209)
(1, 32)(1, 24)(1, 11)(2, 35)(2, 5)(3, 12)(3, 43)(4, 43)(4, 38)(4, 14)(5, 32)(5, 35)(5, 20)(5, 8)(5, 24)(5, 11)(1, 8)(8, 44)(11, 44)(8, 15)(8, 45)(24, 45)(8, 27)(8, 32)(8, 35)(2, 9)(9, 35)(9, 15)(10, 26)(7, 46)(10, 46)(8, 12)(12, 15)(12, 17)(12, 23)(12, 35)(12, 36)(13, 15)(13, 38)(13, 35)(13, 47)(36, 47)(13, 17)(8, 13)(13, 48)(23, 48)(12, 13)(3, 14)(2, 14)(9, 14)(12, 14)(14, 15)(14, 38)(14, 35)(14, 37)(11, 15)(15, 24)(15, 49)(35, 49)(10, 16)(7, 16)(16, 21)(16, 26)(1, 17)(8, 17)(11, 17)(17, 24)(17, 27)(17, 35)(17, 50)(36, 50)(16, 18)(18, 26)(3, 18)(18, 29)(19, 28)(19, 37)(1, 20)(20, 51)(32, 51)(20, 27)(8, 20)(20, 24)(11, 20)(21, 26)(10, 21)(7, 21)(22, 25)(16, 22)(22, 29)(22, 28)(6, 22)(15, 23)(17, 52)(23, 52)(23, 36)(8, 23)(11, 23)(11, 24)(4, 25)(9, 25)(14, 25)(16, 25)(18, 25)(25, 29)(25, 40)(25, 41)(25, 37)(7, 26)(12, 26)(13, 26)(17, 26)(23, 26)(1, 27)(27, 32)(24, 27)(11, 53)(27, 53)(6, 28)(10, 29)(7, 29)(16, 29)(21, 29)(26, 29)(25, 54)(30, 54)(16, 30)(4, 30)(29, 30)(3, 30)(30, 40)(30, 55)(41, 55)(30, 37)(9, 30)(14, 30)(16, 31)(13, 31)(26, 56)(31, 56)(29, 31)(17, 31)(21, 31)(10, 31)(7, 31)(23, 31)(12, 31)(24, 32)(11, 32)(1, 33)(32, 33)(27, 33)(20, 57)(33, 57)(5, 58)(33, 58)(8, 33)(24, 33)(11, 33)(1, 34)(5, 59)(34, 59)(8, 34)(11, 34)(15, 34)(20, 34)(24, 60)(34, 60)(27, 34)(32, 34)(33, 61)(34, 61)(34, 36)(11, 35)(8, 62)(36, 62)(11, 36)(15, 63)(36, 63)(24, 36)(35, 36)(2, 37)(35, 37)(9, 37)(15, 64)(38, 64)(3, 38)(35, 65)(38, 65)(36, 38)(8, 38)(9, 38)(12, 66)(38, 66)(28, 39)(6, 39)(39, 40)(6, 40)(16, 41)(4, 41)(29, 41)(18, 41)(40, 41)(37, 41)(9, 41)(14, 41)(40, 42)(39, 42)(19, 42)(Dict{Int64, Float64}(), Int64[], 66, 209)Set parameter TokenServer to value "solice01.zib.de"
Set parameter Threads to value 1
Set parameter OutputFlag to value 1
Gurobi Optimizer version 12.0.1 build v12.0.1rc0 (linux64 - "Debian GNU/Linux 12 (bookworm)")

CPU model: Intel(R) Xeon(R) Gold 5222 CPU @ 3.80GHz, instruction set [SSE2|AVX|AVX2|AVX512]
Thread count: 8 physical cores, 16 logical processors, using up to 1 threads

Non-default parameters:
Threads  1

Optimize a model with 275 rows, 627 columns and 1045 nonzeros
Model fingerprint: 0xf6d8edd0
Coefficient statistics:
  Matrix range     [1e+00, 1e+00]
  Objective range  [1e+00, 1e+00]
  Bounds range     [1e+00, 1e+00]
  RHS range        [0e+00, 0e+00]
Presolve removed 275 rows and 627 columns
Presolve time: 0.01s
Presolve: All rows and columns removed
Iteration    Objective       Primal Inf.    Dual Inf.      Time
       0   -0.0000000e+00   0.000000e+00   0.000000e+00      0s

Solved in 0 iterations and 0.01 seconds (0.00 work units)
Optimal objective -0.000000000e+00

User-callback calls 35, time in user-callback 0.00 sec
elapsed CPU time: 1.220734 seconds
Set parameter TokenServer to value "solice01.zib.de"
Set parameter Threads to value 1
Set parameter OutputFlag to value 1
Set parameter MIPGap to value 0.0001
Set parameter MIPGapAbs to value 0.999998
Set parameter TimeLimit to value 7198.779266

 more cuts: false 0.05086356964332492 false
is_attach:trueformulation:LEFPAD0 209 0

 model loaded

Gurobi Optimizer version 12.0.1 build v12.0.1rc0 (linux64 - "Debian GNU/Linux 12 (bookworm)")

CPU model: Intel(R) Xeon(R) Gold 5222 CPU @ 3.80GHz, instruction set [SSE2|AVX|AVX2|AVX512]
Thread count: 8 physical cores, 16 logical processors, using up to 1 threads

Non-default parameters:
TimeLimit  7198.779266
MIPGapAbs  0.999998
Threads  1

Optimize a model with 4625 rows, 3464 columns and 12984 nonzeros
Model fingerprint: 0x18cf9607
Variable types: 1699 continuous, 1765 integer (1765 binary)
Coefficient statistics:
  Matrix range     [5e-08, 1e+00]
  Objective range  [1e+00, 1e+00]
  Bounds range     [2e-03, 1e+00]
  RHS range        [2e-03, 1e+00]
Found heuristic solution: objective 203.0000000
Presolve removed 2409 rows and 876 columns
Presolve time: 0.03s
Presolved: 2216 rows, 2588 columns, 8298 nonzeros
Variable types: 1373 continuous, 1215 integer (1215 binary)

Root relaxation: objective 1.530000e+02, 1025 iterations, 0.01 seconds (0.01 work units)

    Nodes    |    Current Node    |     Objective Bounds      |     Work
 Expl Unexpl |  Obj  Depth IntInf | Incumbent    BestBd   Gap | It/Node Time

H    0     0                     153.0000000  153.00000  0.00%     -    0s
     0     0  153.00000    0    3  153.00000  153.00000  0.00%     -    0s

Explored 1 nodes (1164 simplex iterations) in 0.05 seconds (0.04 work units)
Thread count was 1 (of 16 available processors)

Solution count 2: 153 203 

Optimal solution found (tolerance 1.00e-04)
Best objective 1.530000000000e+02, best bound 1.530000000000e+02, gap 0.0000%

User-callback calls 369, time in user-callback 0.00 sec

 sepatime0 0 0
153.0Stat(MathOptInterface.OPTIMAL, 153.0, 153.0, 0.0, 0.0, 1.220734, 0.051991939544677734, 1, Main.CFLG.LEFPAD, "", #undef)
